&control
    calculation  = 'scf',
    prefix       = 'ZnO-RS',
    outdir       = 'outdir',
    pseudo_dir   = '~/PP_eff'
    tstress      = .false.,
    tprnfor      = .false.,
    verbosity    = 'low'
    disk_io      = 'low'
/
&system
    ibrav = 2
    A = 4.14166
    nat = 2
    ntyp = 2
    nbnd      = 13
    ecutwfc   = 60.0,
    ecutrho   = 500.0,
    occupations = 'tetrahedra_opt',
/
&electrons
    diagonalization = 'david',
    mixing_mode     = 'plain',
    mixing_beta     = 0.7,
    conv_thr        = 1.0d-8,
/
ATOMIC_SPECIES
    Zn  65.38000   Zn_pbe_v1.uspp.F.UPF
    O   15.99900   O.pbe-n-kjpaw_psl.0.1.UPF
ATOMIC_POSITIONS crystal
    Zn  0.000000000000000   0.000000000000000   0.000000000000000
    O   0.500000000000000   0.500000000000000   0.500000000000000
K_POINTS automatic
 30 30 30 0 0 0
