&dos
  outdir   = "outdir",
  prefix   = "ZnO-RS"
  fildos   = "ZnO-RS.dos",
  Emin     = -10.0,
  Emax     = 20.0,
  DeltaE   = 0.05
/
