&bands
    prefix     = 'ZnO-WU',
    outdir     = 'outdir',
    filband    = 'ZnO-WU.bands',
    no_overlap = .true.,
/
