&dos
  outdir   = "outdir",
  prefix   = "ZnO-WU"
  fildos   = "ZnO-WU.dos",
  Emin     = -15.0,
  Emax     = 35.0,
  DeltaE   = 0.05
/
