&bands
    prefix     = 'ZnO-RS',
    outdir     = 'outdir',
    filband    = 'ZnO-RS.bands',
    no_overlap = .true.,
/
