#************************************************************************************
#*                  Generated by cif2cell 1.2.10 2020-08-02 16:11                   *
#*  T. Bjorkman, Comp. Phys. Commun. 182, 1183-1186 (2011). Please cite generously. *
#*                                                                                  *
#*                                     ZnO   ()                                     *
#*             Failed to get author information, No journal information             *
#************************************************************************************

&SYSTEM
  ibrav = 0
  A =    4.14166
  nat = 2
  ntyp = 2
/
CELL_PARAMETERS {alat}
  0.500000000000000   0.500000000000000   0.000000000000000 
  0.500000000000000   0.000000000000000   0.500000000000000 
  0.000000000000000   0.500000000000000   0.500000000000000 
ATOMIC_SPECIES
  Zn   65.38000  Zn_PSEUDO
   O   15.99900   O_PSEUDO
ATOMIC_POSITIONS {crystal}
Zn   0.000000000000000   0.000000000000000   0.000000000000000 
 O   0.500000000000000   0.500000000000000   0.500000000000000 
