#************************************************************************************
#*                  Generated by cif2cell 1.2.10 2020-08-02 16:22                   *
#*  T. Bjorkman, Comp. Phys. Commun. 182, 1183-1186 (2011). Please cite generously. *
#*                                                                                  *
#*                                     ZnO   ()                                     *
#*             Failed to get author information, No journal information             *
#************************************************************************************

&SYSTEM
    ibrav = 0
    A = 4.65220
    nat = 8
    ntyp = 2
/
ATOMIC_SPECIES
    Zn  65.38000  Zn_PSEUDO
    O   15.99900   O_PSEUDO
ATOMIC_POSITIONS {crystal}
    Zn  0.000000000000000   0.166666666666667   0.000000000000000
    Zn  0.000000000000000   0.833333333333333   0.500000000000000
    Zn  0.500000000000000   0.333333333333333   0.500000000000000
    Zn  0.500000000000000   0.666666666666667   0.000000000000000
    O   0.000000000000000   0.166666666666667   0.375000000000000
    O   0.000000000000000   0.833333333333333   0.875000000000000
    O   0.500000000000000   0.333333333333333   0.875000000000000
    O   0.500000000000000   0.666666666666667   0.375000000000000
CELL_PARAMETERS {alat}
    1.000000000000000   0.000000000000000   0.000000000000000
    0.000000000000000   1.000000000000000   0.000000000000000
    0.000000000000000   0.000000000000000   1.135571017196815
