 &input 
  fildyn='si.gamma', 
  asr='crystal' 
 /
