&control
    calculation  = 'scf'
    prefix       = 'ZnO',
    outdir       = 'outdir'
    pseudo_dir   = '~/PP_eff'
    restart_mode = 'from_scratch',
    tstress      = .true.
    tprnfor      = .true.
/
&system
    ibrav = 0
    A = 4.14166
    nat = 2
    ntyp = 2
    ecutwfc   = $KATOF$,
/
&electrons
    diagonalization = 'david'
    mixing_mode     = 'plain'
    mixing_beta     = 0.7
    conv_thr        = 1.0d-8
/
ATOMIC_SPECIES
    Zn  65.38000   Zn_pbe_v1.uspp.F.UPF
    O   15.99900   O.pbe-n-kjpaw_psl.0.1.UPF
ATOMIC_POSITIONS {crystal}
    Zn  0.000000000000000   0.000000000000000   0.000000000000000
    O   0.500000000000000   0.500000000000000   0.500000000000000
K_POINTS automatic
    6 6 6 0 0 0
CELL_PARAMETERS {alat}
    0.500000000000000   0.500000000000000   0.000000000000000
    0.500000000000000   0.000000000000000   0.500000000000000
    0.000000000000000   0.500000000000000   0.500000000000000
