&control
    calculation   = 'vc-relax'
    restart_mode  = 'from_scratch',
    prefix        = 'ZnO-RS',
    tstress       = .true.,
    tprnfor       = .true.,
    pseudo_dir    = '~/PP_eff'
    outdir        = 'outdir',
    forc_conv_thr = 1.0d-4,
/
&system
    ibrav = 2
    A = 4.14166
    nat = 2
    ntyp = 2
    ecutwfc = 60.0,
/
&electrons
    diagonalization = 'david',
    mixing_mode     = 'plain',
    mixing_beta     = 0.7,
    conv_thr        = 1.0d-8,
/
&ions
    ion_dynamics  = 'bfgs',
/
&cell
    press = $PRESS$
/
ATOMIC_SPECIES
    Zn  65.38000   Zn_pbe_v1.uspp.F.UPF
    O   15.99900   O.pbe-n-kjpaw_psl.0.1.UPF
ATOMIC_POSITIONS {crystal}
    Zn  0.000000000000000   0.000000000000000   0.000000000000000
    O   0.500000000000000   0.500000000000000   0.500000000000000
K_POINTS automatic
    7 7 7 0 0 0
