 &input 
  fildyn='ZnO-RS.gamma', 
  asr='crystal' 
 /
